x04m05e0t1tp5
3101
3101
3252
3252
3252
3252
3252
3252
3252
3252
3252
3252
3457
3457
3457
3457
3457
3457
3457
3457
3457
3457
3457
3457
3457
3457
3457
3457
3457
3457
3457
3457
3457
3457
3457
3457
3457
3457
3457
3457
3457
3457
3457
3457
3457
3457
3457
3457
3457
3457
3457
3457
3457
3457
3457
3457
3457
3457
3457
3457
3457
3457
3457
3457
3457
3457
3457
3457
3457
3457
3457
3457
3457
3457
3457
3457
3457
3457
3457
3457
3457
3457
3457
3457
3457
3457
3457
3457
3457
3457
3457
3457
3457
3457
3457
3457
3457
3457
3457
3457
3457
3457
3457
3457
3457
3457
3457
3457
3457
3457
3457
3457
3457
3457
3457
3488
3488
3488
3488
3488
3488
3488
3488
3488
3488
3488
3488
3488
3488
3488
3488
3488
3488
3488
3488
3488
3488
3488
3488
3488
3488
3488
3488
3488
3488
3488
3488
3488
3488
3488
3488
3488
3488
3488
3488
3488
3488
3488
3488
3488
3488
3488
3488
3488
3488
3488
3488
3488
3488
3488
3488
3488
3488
3488
3488
3488
3488
3488
3488
3488
3488
3488
3488
3488
3488
3488
3488
3488
3488
3488
3488
3488
3488
3488
3488
3488
3488
3488
3488
3488
3488
3488
3488
3488
3488
3488
3488
3488
3488
3488
3488
3488
3488
3488
3488
3488
3488
3488
3488
3488
3488
3488
3488
3488
3488
3488
3488
3488
3488
3488
3488
3488
3488
3488
3488
3488
3488
3488
3488
3488
3488
3488
3488
3488
3488
3488
3488
3488
3488
3488
3488
3488
3488
3488
3488
3488
3488
3488
3488
3488
3488
3488
3488
3488
3488
3488
3488
3488
3488
3488
3488
3488
3488
3488
3488
3488
3488
3488
3488
3488
3488
3488
3488
3488
3488
3488
3488
3488
3488
3488
3488
3488
3488
3488
3488
3488
3488
3488
3488
3488
3488
3488
3488
3488
3488
3488
3488
3488
3488
3488
3488
3488
3488
3488
3488
3488
3488
3488
3488
3488
3488
3488
3488
3488
3488
3488
3488
3488
3488
3488
3488
3488
3488
3488
3488
3488
3488
3488
3488
3488
3488
3488
3488
3488
3488
3488
3488
3488
3488
3488
3488
3488
3488
3488
3488
3488
3488
3488
3488
3488
3488
3488
3488
3488
3488
3488
3488
3488
3488
3488
3488
3488
3488
3488
3488
3488
3488
3488
3488
3488
3488
3488
3488
3488
3488
3488
3488
3488
3488
3488
3488
3488
3488
3488
3488
3488
3488
3488
3488
3488
3488
3488
3488
3488
3488
3488
3488
3488
3488
3488
3488
3488
3488
3488
3488
3488
3488
3488
3488
3488
3488
3488
3488
3488
3488
3488
3488
3488
3488
3488
3488
3488
3488
3488
3488
3488
3488
3488
3488
3488
3488
3488
3488
3488
3488
3488
3488
3488
3488
3488
3488
3488
3488
3488
3488
3488
3488
3488
3488
3488
3488
3488
3488
3488
3488
3488
3488
3488
3488
3488
3488
3488
3488
3488
3488
3488
3488
3488
3488
3488
3488
3488
3488
3488
3488
3488
3488
3488
3488
3488
3504
3504
3504
3504
3504
3504
3504
3504
3504
3504
3504
3504
3504
3504
3504
3504
3504
3504
3504
3504
3504
3504
3504
3504
3504
3504
3504
3504
3504
3504
3504
3504
3504
3504
3504
3504
3504
3504
3504
3504
3504
3504
3504
3504
3504
3504
3504
3504
3504
3504
3504
3504
3504
3504
3504
3504
3504
3504
3504
3504
3504
3504
3504
3504
3504
3504
3504
3504
3504
3504
3504
3504
3504
3504
3504
3504
3504
3584
3584
3584
3584
3584
3584
3584
3584
3584
3584
3584
3584
3584
3584
3584
3584
3584
3584
3584
3584
3584
3584
3584
3584
3584
3584
3584
3584
3584
3584
3584
3584
3584
3584
3584
3584
3584
3584
3584
3584
3584
3584
3584
3584
3584
3584
3584
3584
3584
3584
3584
3584
3584
3584
3584
3584
3584
3584
3584
3584
3584
3584
3584
3584
3584
3584
3584
3584
3584
3584
3584
3584
3584
3584
3584
3584
3584
3584
3584
3584
3584
3584
3584
3584
3584
3584
3584
3584
3584
3584
3584
3584
3584
3584
3584
3584
3584
3584
3584
3584
3584
3584
3584
3584
3584
3584
3584
3584
3584
3584
3584
3584
3584
3584
3584
3584
3584
3584
3584
3584
3584
3584
3584
3584
3584
3584
3584
3584
3584
3584
3584
3584
3584
3584
3584
3584
3584
3584
3584
3584
3584
3584
3584
3584
3584
3584
3584
3584
3584
3584
3584
3584
3584
3584
3584
3584
3584
3584
3584
3584
3584
3584
3584
3584
3584
3584
3584
3584
3584
3584
3584
3584
3584
3584
3584
3584
3584
3584
3584
3584
3584
3584
3584
3584
3584
3584
3584
3584
3584
3584
3584
3584
3584
3584
3584
3584
3584
3584
3584
3584
3584
3584
3584
3584
3584
3584
3584
3584
3584
3584
3584
3584
3584
3584
3584
3584
3584
3584
3584
3584
3584
3584
3584
3584
3584
3584
3584
3584
3584
3584
3584
3584
3584
3584
3584
3584
3584
3584
3584
3584
3584
3584
3584
3584
3584
3584
3584
3584
3584
3584
3584
3584
3584
3584
3584
3584
3584
3584
3584
3584
3584
3584
3584
3584
3584
3584
3584
3584
3584
3584
3584
3584
3584
3584
3584
3584
3584
3584
3584
3584
3584
3584
3584
3584
3584
3584
3584
3584
3584
3584
3584
3584
3584
3584
3584
3584
3584
3584
3584
3584
3584
3584
3584
3584
3584
3584
3584
3584
3584
3584
3584
3584
3584
3584
3584
3584
3584
3584
3584
3584
3584
3584
3584
3584
3698
3698
3698
3698
3698
3698
3698
3698
3698
3698
3698
3698
3698
3698
3698
3698
3698
3698
3698
3698
3698
3698
3698
3698
3698
3698
3698
3698
3698
3698
3698
3698
3698
3698
3698
3698
3698
3698
3698
3698
3698
3698
3698
3698
3698
3698
3698
3698
3698
3698
3698
3698
3698
3698
3698
3698
3698
3698
3698
3698
3698
3698
3698
3698
3698
3698
3698
3698
3698
3698
3698
3698
3698
3698
3698
3698
3698
3698
3698
3698
3698
3698
3698
3698
3698
3698
3698
3698
3698
3698
3698
3698
3698
3698
3698
3698
3698
3698
3698
3698
3698
3698
3698
3698
3698
3698
3698
3698
3698
